\Problem name: compact

Minimize
OBJROW: C
Subject To
ord(0,1):  - x(0,0) + x(0,2) >= 6
ord(0,2):  x(0,1) - x(0,2) >= 3
ord(1,1):  x(1,0) - x(1,2) >= 5
ord(1,2):  - x(1,0) + x(1,1) >= 5
ord(2,1):  - x(2,0) + x(2,2) >= 1
ord(2,2):  x(2,1) - x(2,2) >= 5
triangle2(0,1,0):  y(0,1,0) + y(1,0,0) = 1
triangle2(0,1,1):  y(0,1,1) + y(1,0,1) = 1
triangle2(0,1,2):  y(0,1,2) + y(1,0,2) = 1
triangle2(0,2,0):  y(0,2,0) + y(2,0,0) = 1
triangle2(0,2,1):  y(0,2,1) + y(2,0,1) = 1
triangle2(0,2,2):  y(0,2,2) + y(2,0,2) = 1
triangle2(1,2,0):  y(1,2,0) + y(2,1,0) = 1
triangle2(1,2,1):  y(1,2,1) + y(2,1,1) = 1
triangle2(1,2,2):  y(1,2,2) + y(2,1,2) = 1
MCLinV(0,1,0):  x(0,0) - v(0,1,0) - x(1,0) = 5
MCLinV(1,0,0):  - x(0,0) - v(1,0,0) + x(1,0) = 6
MCLin1(0,1,0):  u(0,1,0) >= -0
MCLin2(0,1,0):  -33 y(1,0,0) - u(0,1,0) <= -0
MCLin3(0,1,0):  13 y(1,0,0) + v(0,1,0) - u(0,1,0) <= 13
MCLin4(0,1,0):  13 y(1,0,0) - u(0,1,0) >= -0
MCLin5(0,1,0):  -33 y(1,0,0) + v(0,1,0) - u(0,1,0) >= -33
MCLin6(1,0,0):  u(1,0,0) >= -0
MCLin7(1,0,0):  -24 y(0,1,0) - u(1,0,0) <= -0
MCLin8(1,0,0):  22 y(0,1,0) + v(1,0,0) - u(1,0,0) <= 22
MCLin9(1,0,0):  22 y(0,1,0) - u(1,0,0) >= -0
MCLin10(1,0,0):  -24 y(0,1,0) + v(1,0,0) - u(1,0,0) >= -24
MCLinV(0,1,1):  x(0,1) - v(0,1,1) - x(1,1) = 3
MCLinV(1,0,1):  - x(0,1) - v(1,0,1) + x(1,1) = 4
MCLin1(0,1,1):  u(0,1,1) >= -0
MCLin2(0,1,1):  -27 y(1,0,1) - u(0,1,1) <= -0
MCLin3(0,1,1):  19 y(1,0,1) + v(0,1,1) - u(0,1,1) <= 19
MCLin4(0,1,1):  19 y(1,0,1) - u(0,1,1) >= -0
MCLin5(0,1,1):  -27 y(1,0,1) + v(0,1,1) - u(0,1,1) >= -27
MCLin6(1,0,1):  u(1,0,1) >= -0
MCLin7(1,0,1):  -26 y(0,1,1) - u(1,0,1) <= -0
MCLin8(1,0,1):  20 y(0,1,1) + v(1,0,1) - u(1,0,1) <= 20
MCLin9(1,0,1):  20 y(0,1,1) - u(1,0,1) >= -0
MCLin10(1,0,1):  -26 y(0,1,1) + v(1,0,1) - u(1,0,1) >= -26
MCLinV(0,1,2):  x(0,2) - v(0,1,2) - x(1,2) = 5
MCLinV(1,0,2):  - x(0,2) - v(1,0,2) + x(1,2) = 3
MCLin1(0,1,2):  u(0,1,2) >= -0
MCLin2(0,1,2):  -22 y(1,0,2) - u(0,1,2) <= -0
MCLin3(0,1,2):  24 y(1,0,2) + v(0,1,2) - u(0,1,2) <= 24
MCLin4(0,1,2):  24 y(1,0,2) - u(0,1,2) >= -0
MCLin5(0,1,2):  -22 y(1,0,2) + v(0,1,2) - u(0,1,2) >= -22
MCLin6(1,0,2):  u(1,0,2) >= -0
MCLin7(1,0,2):  -32 y(0,1,2) - u(1,0,2) <= -0
MCLin8(1,0,2):  14 y(0,1,2) + v(1,0,2) - u(1,0,2) <= 14
MCLin9(1,0,2):  14 y(0,1,2) - u(1,0,2) >= -0
MCLin10(1,0,2):  -32 y(0,1,2) + v(1,0,2) - u(1,0,2) >= -32
MCLinV(0,2,0):  x(0,0) - v(0,2,0) - x(2,0) = 1
MCLinV(2,0,0):  - x(0,0) - v(2,0,0) + x(2,0) = 6
MCLin1(0,2,0):  u(0,2,0) >= -0
MCLin2(0,2,0):  -27 y(2,0,0) - u(0,2,0) <= -0
MCLin3(0,2,0):  22 y(2,0,0) + v(0,2,0) - u(0,2,0) <= 22
MCLin4(0,2,0):  22 y(2,0,0) - u(0,2,0) >= -0
MCLin5(0,2,0):  -27 y(2,0,0) + v(0,2,0) - u(0,2,0) >= -27
MCLin6(2,0,0):  u(2,0,0) >= -0
MCLin7(2,0,0):  -29 y(0,2,0) - u(2,0,0) <= -0
MCLin8(2,0,0):  20 y(0,2,0) + v(2,0,0) - u(2,0,0) <= 20
MCLin9(2,0,0):  20 y(0,2,0) - u(2,0,0) >= -0
MCLin10(2,0,0):  -29 y(0,2,0) + v(2,0,0) - u(2,0,0) >= -29
MCLinV(0,2,1):  x(0,1) - v(0,2,1) - x(2,1) = 4
MCLinV(2,0,1):  - x(0,1) - v(2,0,1) + x(2,1) = 4
MCLin1(0,2,1):  u(0,2,1) >= -0
MCLin2(0,2,1):  -27 y(2,0,1) - u(0,2,1) <= -0
MCLin3(0,2,1):  22 y(2,0,1) + v(0,2,1) - u(0,2,1) <= 22
MCLin4(0,2,1):  22 y(2,0,1) - u(0,2,1) >= -0
MCLin5(0,2,1):  -27 y(2,0,1) + v(0,2,1) - u(0,2,1) >= -27
MCLin6(2,0,1):  u(2,0,1) >= -0
MCLin7(2,0,1):  -30 y(0,2,1) - u(2,0,1) <= -0
MCLin8(2,0,1):  19 y(0,2,1) + v(2,0,1) - u(2,0,1) <= 19
MCLin9(2,0,1):  19 y(0,2,1) - u(2,0,1) >= -0
MCLin10(2,0,1):  -30 y(0,2,1) + v(2,0,1) - u(2,0,1) >= -30
MCLinV(0,2,2):  x(0,2) - v(0,2,2) - x(2,2) = 5
MCLinV(2,0,2):  - x(0,2) - v(2,0,2) + x(2,2) = 3
MCLin1(0,2,2):  u(0,2,2) >= -0
MCLin2(0,2,2):  -26 y(2,0,2) - u(0,2,2) <= -0
MCLin3(0,2,2):  23 y(2,0,2) + v(0,2,2) - u(0,2,2) <= 23
MCLin4(0,2,2):  23 y(2,0,2) - u(0,2,2) >= -0
MCLin5(0,2,2):  -26 y(2,0,2) + v(0,2,2) - u(0,2,2) >= -26
MCLin6(2,0,2):  u(2,0,2) >= -0
MCLin7(2,0,2):  -31 y(0,2,2) - u(2,0,2) <= -0
MCLin8(2,0,2):  18 y(0,2,2) + v(2,0,2) - u(2,0,2) <= 18
MCLin9(2,0,2):  18 y(0,2,2) - u(2,0,2) >= -0
MCLin10(2,0,2):  -31 y(0,2,2) + v(2,0,2) - u(2,0,2) >= -31
MCLinV(1,2,0):  x(1,0) - v(1,2,0) - x(2,0) = 1
MCLinV(2,1,0):  - x(1,0) - v(2,1,0) + x(2,0) = 5
MCLin1(1,2,0):  u(1,2,0) >= -0
MCLin2(1,2,0):  -22 y(2,1,0) - u(1,2,0) <= -0
MCLin3(1,2,0):  27 y(2,1,0) + v(1,2,0) - u(1,2,0) <= 27
MCLin4(1,2,0):  27 y(2,1,0) - u(1,2,0) >= -0
MCLin5(1,2,0):  -22 y(2,1,0) + v(1,2,0) - u(1,2,0) >= -22
MCLin6(2,1,0):  u(2,1,0) >= -0
MCLin7(2,1,0):  -33 y(1,2,0) - u(2,1,0) <= -0
MCLin8(2,1,0):  16 y(1,2,0) + v(2,1,0) - u(2,1,0) <= 16
MCLin9(2,1,0):  16 y(1,2,0) - u(2,1,0) >= -0
MCLin10(2,1,0):  -33 y(1,2,0) + v(2,1,0) - u(2,1,0) >= -33
MCLinV(1,2,1):  x(1,1) - v(1,2,1) - x(2,1) = 4
MCLinV(2,1,1):  - x(1,1) - v(2,1,1) + x(2,1) = 3
MCLin1(1,2,1):  u(1,2,1) >= -0
MCLin2(1,2,1):  -26 y(2,1,1) - u(1,2,1) <= -0
MCLin3(1,2,1):  23 y(2,1,1) + v(1,2,1) - u(1,2,1) <= 23
MCLin4(1,2,1):  23 y(2,1,1) - u(1,2,1) >= -0
MCLin5(1,2,1):  -26 y(2,1,1) + v(1,2,1) - u(1,2,1) >= -26
MCLin6(2,1,1):  u(2,1,1) >= -0
MCLin7(2,1,1):  -30 y(1,2,1) - u(2,1,1) <= -0
MCLin8(2,1,1):  19 y(1,2,1) + v(2,1,1) - u(2,1,1) <= 19
MCLin9(2,1,1):  19 y(1,2,1) - u(2,1,1) >= -0
MCLin10(2,1,1):  -30 y(1,2,1) + v(2,1,1) - u(2,1,1) >= -30
MCLinV(1,2,2):  x(1,2) - v(1,2,2) - x(2,2) = 5
MCLinV(2,1,2):  - x(1,2) - v(2,1,2) + x(2,2) = 5
MCLin1(1,2,2):  u(1,2,2) >= -0
MCLin2(1,2,2):  -32 y(2,1,2) - u(1,2,2) <= -0
MCLin3(1,2,2):  17 y(2,1,2) + v(1,2,2) - u(1,2,2) <= 17
MCLin4(1,2,2):  17 y(2,1,2) - u(1,2,2) >= -0
MCLin5(1,2,2):  -32 y(2,1,2) + v(1,2,2) - u(1,2,2) >= -32
MCLin6(2,1,2):  u(2,1,2) >= -0
MCLin7(2,1,2):  -27 y(1,2,2) - u(2,1,2) <= -0
MCLin8(2,1,2):  22 y(1,2,2) + v(2,1,2) - u(2,1,2) <= 22
MCLin9(2,1,2):  22 y(1,2,2) - u(2,1,2) >= -0
MCLin10(2,1,2):  -27 y(1,2,2) + v(2,1,2) - u(2,1,2) >= -27
makespan(0):  C - x(0,1) >= 4
makespan(1):  C - x(1,1) >= 3
makespan(2):  C - x(2,1) >= 4
cut_clique_0(012,0):  x(0,0) + 0.16667 x(2,0) >= 1
cut_clique_0(012,1):  0.04640 x(0,1) + 0.03480 x(1,1) + 0.00812 x(2,1) >= 1
cut_clique_0(012,2):  0.13333 x(1,2) + 0.20000 x(2,2) >= 1
cut_clique_1(012,0):  0.03077 x(0,0) + 0.13846 x(1,0) + 0.01538 x(2,0) >= 1
cut_clique_1(012,2):  0.06667 x(0,2) + 0.05926 x(1,2) + 0.06667 x(2,2) >= 1
cut_clique_0:  0.01407 x(0,0) + 0.06332 x(1,0) + 0.00235 x(2,0) + 0.03618 x(0,2) + 0.01809 x(1,2) + 0.03618 x(2,2) >= 1
cut_clique_1:  0.01343 x(0,0) + 0.06043 x(1,0) + 0.03645 x(0,2) + 0.02046 x(1,2) + 0.03981 x(2,2) >= 1
Bounds
 0 <= C <= 36
 0 <= x(0,0) <= 23
 0 <= y(0,1,0) <= 1
 0 <= y(1,0,0) <= 1
 -33 <= v(0,1,0) <= 13
 -24 <= v(1,0,0) <= 22
 -360 <= u(0,1,0)
 -360 <= u(1,0,0)
 0 <= y(0,2,0) <= 1
 0 <= y(2,0,0) <= 1
 -27 <= v(0,2,0) <= 22
 -29 <= v(2,0,0) <= 20
 -360 <= u(0,2,0)
 -360 <= u(2,0,0)
 5 <= x(1,0) <= 28
 0 <= y(1,2,0) <= 1
 0 <= y(2,1,0) <= 1
 -22 <= v(1,2,0) <= 27
 -33 <= v(2,1,0) <= 16
 -360 <= u(1,2,0)
 -360 <= u(2,1,0)
 0 <= x(2,0) <= 26
 9 <= x(0,1) <= 32
 0 <= y(0,1,1) <= 1
 0 <= y(1,0,1) <= 1
 -27 <= v(0,1,1) <= 19
 -26 <= v(1,0,1) <= 20
 -360 <= u(0,1,1)
 -360 <= u(1,0,1)
 0 <= y(0,2,1) <= 1
 0 <= y(2,0,1) <= 1
 -27 <= v(0,2,1) <= 22
 -30 <= v(2,0,1) <= 19
 -360 <= u(0,2,1)
 -360 <= u(2,0,1)
 10 <= x(1,1) <= 33
 0 <= y(1,2,1) <= 1
 0 <= y(2,1,1) <= 1
 -26 <= v(1,2,1) <= 23
 -30 <= v(2,1,1) <= 19
 -360 <= u(1,2,1)
 -360 <= u(2,1,1)
 6 <= x(2,1) <= 32
 6 <= x(0,2) <= 29
 0 <= y(0,1,2) <= 1
 0 <= y(1,0,2) <= 1
 -22 <= v(0,1,2) <= 24
 -32 <= v(1,0,2) <= 14
 -360 <= u(0,1,2)
 -360 <= u(1,0,2)
 0 <= y(0,2,2) <= 1
 0 <= y(2,0,2) <= 1
 -26 <= v(0,2,2) <= 23
 -31 <= v(2,0,2) <= 18
 -360 <= u(0,2,2)
 -360 <= u(2,0,2)
 0 <= x(1,2) <= 23
 0 <= y(1,2,2) <= 1
 0 <= y(2,1,2) <= 1
 -32 <= v(1,2,2) <= 17
 -27 <= v(2,1,2) <= 22
 -360 <= u(1,2,2)
 -360 <= u(2,1,2)
 1 <= x(2,2) <= 27
Integers
C x(0,0) y(0,1,0) y(1,0,0) v(0,1,0) v(1,0,0) u(0,1,0) u(1,0,0) y(0,2,0) y(2,0,0) 
v(0,2,0) v(2,0,0) u(0,2,0) u(2,0,0) x(1,0) y(1,2,0) y(2,1,0) v(1,2,0) v(2,1,0) u(1,2,0) 
u(2,1,0) x(2,0) x(0,1) y(0,1,1) y(1,0,1) v(0,1,1) v(1,0,1) u(0,1,1) u(1,0,1) y(0,2,1) 
y(2,0,1) v(0,2,1) v(2,0,1) u(0,2,1) u(2,0,1) x(1,1) y(1,2,1) y(2,1,1) v(1,2,1) v(2,1,1) 
u(1,2,1) u(2,1,1) x(2,1) x(0,2) y(0,1,2) y(1,0,2) v(0,1,2) v(1,0,2) u(0,1,2) u(1,0,2) 
y(0,2,2) y(2,0,2) v(0,2,2) v(2,0,2) u(0,2,2) u(2,0,2) x(1,2) y(1,2,2) y(2,1,2) v(1,2,2) 
v(2,1,2) u(1,2,2) u(2,1,2) x(2,2) 
End
